p tw 196 2185
1 16
1 56
1 101
1 124
1 178
1 189
1 195
1 8
1 2
1 73
1 85
1 97
1 109
1 114
1 138
1 190
1 191
1 192
1 193
1 194
1 196
1 10
1 36
1 70
1 72
1 74
1 11
1 9
1 7
1 6
1 4
1 116
1 83
1 126
1 14
1 134
1 172
1 177
1 176
1 173
1 185
1 184
1 141
1 182
1 181
1 180
1 29
1 155
1 63
1 60
1 120
1 140
1 139
1 137
1 136
1 135
1 98
1 103
1 25
1 171
1 179
1 117
1 122
1 121
1 119
1 183
1 133
1 130
1 129
1 128
1 127
1 123
1 115
1 112
1 111
1 110
1 102
1 80
1 69
1 58
1 47
1 90
1 99
1 96
1 95
1 94
1 188
1 164
1 153
1 142
1 131
1 108
1 107
1 106
1 105
1 104
1 100
1 67
1 66
1 93
1 3
1 68
1 92
1 186
1 175
1 88
1 87
1 86
1 84
1 89
1 71
1 82
1 81
1 79
1 78
1 77
1 76
1 75
1 154
1 169
1 168
1 170
1 167
1 166
1 165
1 161
1 160
1 159
1 158
1 157
1 156
1 163
1 151
1 149
1 148
1 147
1 146
1 145
1 144
1 35
1 41
1 39
1 38
1 46
1 45
1 44
1 43
1 42
1 55
1 152
1 54
1 52
1 51
1 50
1 32
1 143
1 31
1 118
1 125
1 162
1 13
1 187
1 174
1 132
1 26
1 23
1 22
1 21
1 19
1 18
1 49
1 37
1 24
1 64
1 91
1 113
1 12
1 61
1 65
1 150
2 73
2 85
2 97
2 109
2 114
2 138
2 190
2 191
2 192
2 193
2 194
2 196
2 10
2 36
2 70
2 72
2 74
2 77
2 78
2 79
2 81
2 82
2 150
12 49
12 37
12 24
12 61
24 49
24 37
24 61
37 49
37 61
49 61
73 85
73 97
73 74
85 97
109 114
109 138
109 190
109 191
109 192
109 193
109 194
109 196
109 10
109 36
109 70
109 72
109 74
109 126
109 9
109 4
109 116
109 155
109 150
114 138
114 190
114 191
114 192
114 193
114 194
114 196
114 10
114 70
114 72
114 74
114 126
114 9
114 4
114 116
114 155
114 150
126 172
126 177
126 176
126 173
126 185
126 184
126 182
126 181
126 180
126 29
126 63
126 60
126 140
126 139
126 137
126 136
126 135
126 133
126 130
126 129
126 128
126 127
126 99
126 96
126 95
126 94
126 108
126 107
126 106
126 105
126 104
126 100
126 154
126 169
126 168
126 167
126 166
126 165
126 161
126 160
126 159
126 158
126 157
126 156
126 151
126 149
126 148
126 147
126 146
126 145
126 144
126 35
126 41
126 39
126 38
126 46
126 45
126 44
126 43
126 42
126 55
126 54
126 52
126 51
126 50
126 32
126 31
126 162
126 13
126 187
126 174
126 26
126 23
126 22
126 21
126 19
126 18
138 190
138 191
138 192
138 193
138 194
138 196
138 10
138 70
138 72
138 74
138 9
138 4
138 155
138 77
138 78
138 79
138 81
138 82
138 76
138 150
150 5
150 15
150 17
150 20
150 27
150 28
150 30
150 33
150 34
150 40
150 48
150 53
150 57
150 59
150 62
150 64
150 65
150 71
150 83
150 90
150 98
150 103
150 152
150 155
150 163
150 170
150 171
150 179
150 183
150 188
150 4
150 6
150 7
150 9
150 11
150 12
150 24
150 37
150 49
150 61
150 162
150 174
150 187
150 13
150 18
150 19
150 21
150 22
150 23
150 26
150 29
150 31
150 32
150 35
150 38
150 39
150 41
150 42
150 43
150 44
150 45
150 46
150 50
150 51
150 52
150 54
150 55
150 60
150 63
150 66
150 67
150 68
150 75
150 76
150 77
150 78
150 79
150 81
150 82
150 84
150 86
150 87
150 88
150 89
150 92
150 93
150 94
150 95
150 96
150 99
150 100
150 104
150 105
150 106
150 107
150 108
150 151
150 154
150 156
150 157
150 158
150 159
150 160
150 161
150 165
150 166
150 167
150 168
150 169
150 172
150 173
150 176
150 177
150 180
150 181
150 182
150 184
150 185
150 10
150 196
150 194
150 193
150 192
150 191
150 190
150 74
150 72
150 70
162 13
162 187
162 174
162 26
162 23
162 22
162 21
162 19
162 18
174 187
187 13
187 23
187 22
187 21
187 19
187 18
5 15
5 17
5 20
5 27
5 28
5 30
5 33
5 34
5 40
5 48
5 53
5 57
5 59
5 62
5 64
5 65
5 71
5 83
5 90
5 98
5 103
5 6
5 7
5 9
5 11
5 12
5 24
5 37
5 49
5 61
5 13
5 18
5 19
5 21
5 22
5 23
5 26
5 29
5 31
5 32
5 35
5 38
5 39
5 41
5 42
5 43
5 44
5 45
5 46
5 50
5 51
5 52
5 54
5 55
5 60
5 63
5 66
5 67
5 68
5 75
5 76
5 77
5 78
5 79
5 81
5 82
5 84
5 86
5 87
5 88
5 89
5 92
5 93
5 94
5 95
5 96
5 99
5 100
5 104
5 105
5 106
5 107
5 108
13 19
13 18
15 17
15 20
15 27
15 28
15 30
15 33
15 34
15 40
15 48
15 53
15 57
15 59
15 62
15 64
15 65
15 71
15 83
15 90
15 98
15 103
15 24
15 37
15 49
15 61
15 18
15 19
15 21
15 22
15 23
15 26
15 29
15 31
15 32
15 35
15 38
15 39
15 41
15 42
15 43
15 44
15 45
15 46
15 50
15 51
15 52
15 54
15 55
15 60
15 63
15 66
15 67
15 68
15 75
15 76
15 77
15 78
15 79
15 81
15 82
15 84
15 86
15 87
15 88
15 89
15 92
15 93
15 94
15 95
15 96
15 99
15 100
15 104
15 105
15 106
15 107
15 108
16 56
16 101
16 73
16 85
16 97
16 70
16 72
16 74
16 83
16 29
16 63
16 60
16 98
16 103
16 90
16 99
16 96
16 95
16 94
16 108
16 107
16 106
16 105
16 104
16 100
16 67
16 66
16 93
16 68
16 92
16 88
16 87
16 86
16 84
16 89
16 71
16 82
16 81
16 79
16 78
16 77
16 76
16 75
16 35
16 41
16 39
16 38
16 46
16 45
16 44
16 43
16 42
16 55
16 54
16 52
16 51
16 50
16 32
16 31
16 26
16 23
16 22
16 21
16 19
16 18
16 49
16 37
16 24
16 64
16 61
16 65
17 20
17 27
17 28
17 30
17 33
17 34
17 40
17 48
17 53
17 57
17 59
17 62
17 64
17 65
17 71
17 83
17 90
17 98
17 103
17 24
17 37
17 49
17 61
17 18
17 19
17 21
17 22
17 23
17 26
17 29
17 31
17 32
17 35
17 38
17 39
17 41
17 42
17 43
17 44
17 45
17 46
17 50
17 51
17 52
17 54
17 55
17 60
17 63
17 66
17 67
17 68
17 75
17 76
17 77
17 78
17 79
17 81
17 82
17 84
17 86
17 87
17 88
17 89
17 92
17 93
17 94
17 95
17 96
17 99
17 100
17 104
17 105
17 106
17 107
17 108
17 74
20 27
20 28
20 30
20 33
20 34
20 40
20 48
20 53
20 57
20 59
20 62
20 64
20 65
20 71
20 83
20 90
20 98
20 103
20 24
20 37
20 49
20 61
20 21
20 22
20 23
20 26
20 29
20 31
20 32
20 35
20 38
20 39
20 41
20 42
20 43
20 44
20 45
20 46
20 50
20 51
20 52
20 54
20 55
20 60
20 63
20 66
20 67
20 68
20 75
20 76
20 77
20 78
20 79
20 81
20 82
20 84
20 86
20 87
20 88
20 89
20 92
20 93
20 94
20 95
20 96
20 99
20 100
20 104
20 105
20 106
20 107
20 108
20 72
20 74
21 26
21 23
21 22
22 26
22 23
23 26
27 28
27 30
27 33
27 34
27 40
27 48
27 53
27 57
27 59
27 62
27 64
27 65
27 71
27 83
27 90
27 98
27 103
27 37
27 49
27 61
27 29
27 31
27 32
27 35
27 38
27 39
27 41
27 42
27 43
27 44
27 45
27 46
27 50
27 51
27 52
27 54
27 55
27 60
27 63
27 66
27 67
27 68
27 75
27 76
27 77
27 78
27 79
27 81
27 82
27 84
27 86
27 87
27 88
27 89
27 92
27 93
27 94
27 95
27 96
27 99
27 100
27 104
27 105
27 106
27 107
27 108
27 70
27 72
27 74
28 30
28 33
28 34
28 40
28 48
28 53
28 57
28 59
28 62
28 64
28 65
28 71
28 83
28 90
28 98
28 103
28 37
28 49
28 61
28 29
28 31
28 32
28 35
28 38
28 39
28 41
28 42
28 43
28 44
28 45
28 46
28 50
28 51
28 52
28 54
28 55
28 60
28 63
28 66
28 67
28 68
28 75
28 76
28 77
28 78
28 79
28 81
28 82
28 84
28 86
28 87
28 88
28 89
28 92
28 93
28 94
28 95
28 96
28 99
28 100
28 104
28 105
28 106
28 107
28 108
28 70
28 72
28 74
30 33
30 34
30 40
30 48
30 53
30 57
30 59
30 62
30 64
30 65
30 71
30 83
30 90
30 98
30 103
30 37
30 49
30 61
30 31
30 32
30 35
30 38
30 39
30 41
30 42
30 43
30 44
30 45
30 46
30 50
30 51
30 52
30 54
30 55
30 60
30 63
30 66
30 67
30 68
30 75
30 76
30 77
30 78
30 79
30 81
30 82
30 84
30 86
30 87
30 88
30 89
30 92
30 93
30 94
30 95
30 96
30 99
30 100
30 104
30 105
30 106
30 107
30 108
30 70
30 72
30 74
31 32
33 34
33 40
33 48
33 53
33 57
33 59
33 62
33 64
33 65
33 71
33 83
33 90
33 98
33 103
33 37
33 49
33 61
33 35
33 38
33 39
33 41
33 42
33 43
33 44
33 45
33 46
33 50
33 51
33 52
33 54
33 55
33 60
33 63
33 66
33 67
33 68
33 75
33 76
33 77
33 78
33 79
33 81
33 82
33 84
33 86
33 87
33 88
33 89
33 92
33 93
33 94
33 95
33 96
33 99
33 100
33 104
33 105
33 106
33 107
33 108
33 70
33 72
33 74
34 40
34 48
34 53
34 57
34 59
34 62
34 64
34 65
34 71
34 83
34 90
34 98
34 103
34 37
34 49
34 61
34 35
34 38
34 39
34 41
34 42
34 43
34 44
34 45
34 46
34 50
34 51
34 52
34 54
34 55
34 60
34 63
34 66
34 67
34 68
34 75
34 76
34 77
34 78
34 79
34 81
34 82
34 84
34 86
34 87
34 88
34 89
34 92
34 93
34 94
34 95
34 96
34 99
34 100
34 104
34 105
34 106
34 107
34 108
34 70
34 72
34 74
35 38
38 41
38 39
38 46
38 45
38 44
38 43
38 42
38 55
38 54
38 52
38 51
38 50
39 41
40 48
40 53
40 57
40 59
40 62
40 64
40 65
40 71
40 83
40 90
40 98
40 103
40 49
40 61
40 41
40 42
40 43
40 44
40 45
40 46
40 50
40 51
40 52
40 54
40 55
40 60
40 63
40 66
40 67
40 68
40 75
40 76
40 77
40 78
40 79
40 81
40 82
40 84
40 86
40 87
40 88
40 89
40 92
40 93
40 94
40 95
40 96
40 99
40 100
40 104
40 105
40 106
40 107
40 108
41 46
41 45
41 44
41 43
41 42
41 55
41 54
41 52
41 51
41 50
42 44
42 43
43 45
43 44
44 46
44 45
44 55
44 54
44 52
44 51
45 46
45 55
45 54
45 52
45 51
46 52
46 51
48 53
48 57
48 59
48 62
48 64
48 65
48 71
48 83
48 90
48 98
48 103
48 49
48 61
48 50
48 51
48 52
48 54
48 55
48 60
48 63
48 66
48 67
48 68
48 75
48 76
48 77
48 78
48 79
48 81
48 82
48 84
48 86
48 87
48 88
48 89
48 92
48 93
48 94
48 95
48 96
48 99
48 100
48 104
48 105
48 106
48 107
48 108
53 57
53 59
53 62
53 64
53 65
53 71
53 83
53 90
53 98
53 103
53 61
53 54
53 55
53 60
53 63
53 66
53 67
53 68
53 75
53 76
53 77
53 78
53 79
53 81
53 82
53 84
53 86
53 87
53 88
53 89
53 92
53 93
53 94
53 95
53 96
53 99
53 100
53 104
53 105
53 106
53 107
53 108
54 55
56 101
56 73
56 85
56 97
56 70
56 72
56 74
56 83
56 63
56 60
56 98
56 103
56 90
56 99
56 96
56 95
56 94
56 108
56 107
56 106
56 105
56 104
56 100
56 64
56 61
56 65
57 59
57 62
57 64
57 65
57 71
57 83
57 90
57 98
57 103
57 61
57 60
57 63
57 66
57 67
57 68
57 75
57 76
57 77
57 78
57 79
57 81
57 82
57 84
57 86
57 87
57 88
57 89
57 92
57 93
57 94
57 95
57 96
57 99
57 100
57 104
57 105
57 106
57 107
57 108
59 62
59 64
59 65
59 71
59 83
59 90
59 98
59 103
59 61
59 60
59 63
59 66
59 67
59 68
59 75
59 76
59 77
59 78
59 79
59 81
59 82
59 84
59 86
59 87
59 88
59 89
59 92
59 93
59 94
59 95
59 96
59 99
59 100
59 104
59 105
59 106
59 107
59 108
62 64
62 65
62 71
62 83
62 90
62 98
62 103
62 63
62 66
62 67
62 68
62 75
62 76
62 77
62 78
62 79
62 81
62 82
62 84
62 86
62 87
62 88
62 89
62 92
62 93
62 94
62 95
62 96
62 99
62 100
62 104
62 105
62 106
62 107
62 108
64 65
66 67
68 92
70 74
70 72
71 89
71 88
71 86
72 74
75 82
75 81
75 79
75 78
75 77
75 76
76 82
76 81
76 79
76 78
76 77
77 82
77 81
77 79
77 78
78 82
78 81
78 79
79 82
79 81
81 82
84 86
86 88
86 87
86 89
88 89
90 93
90 92
94 95
95 96
96 99
96 108
96 107
96 106
96 105
96 104
98 103
99 105
99 104
106 108
106 107
107 108
120 140
120 139
120 135
120 126
120 9
120 4
120 155
120 116
120 145
120 144
131 164
131 153
131 142
142 164
142 153
153 164
175 88
175 86
175 89
186 92
186 68
3 93
3 67
14 172
14 126
14 9
14 4
14 134
14 116
14 177
14 176
14 173
14 185
14 184
14 141
14 182
14 181
14 180
47 58
58 69
69 102
69 80
80 112
80 111
80 110
80 102
91 49
91 37
91 24
91 9
91 4
91 116
91 113
91 12
91 61
110 112
110 111
113 49
113 37
113 24
113 9
113 4
113 116
113 12
113 61
116 9
116 4
116 126
116 134
116 172
116 177
116 176
116 173
116 185
116 184
116 141
116 182
116 181
116 180
116 29
116 155
116 63
116 60
116 140
116 139
116 137
116 136
116 135
116 171
116 179
116 117
116 122
116 121
116 119
116 183
116 133
116 130
116 129
116 128
116 127
116 123
116 99
116 96
116 95
116 94
116 188
116 108
116 107
116 106
116 105
116 104
116 100
116 154
116 169
116 168
116 170
116 167
116 166
116 165
116 161
116 160
116 159
116 158
116 157
116 156
116 163
116 151
116 149
116 148
116 147
116 146
116 145
116 144
116 35
116 41
116 39
116 38
116 46
116 45
116 44
116 43
116 42
116 55
116 152
116 54
116 52
116 51
116 50
116 32
116 143
116 31
116 118
116 125
116 162
116 13
116 187
116 174
116 132
116 26
116 23
116 22
116 21
116 19
116 18
116 49
116 37
116 24
116 12
116 11
116 61
117 122
117 121
117 119
117 133
117 130
117 129
117 128
117 127
117 123
118 162
118 126
118 9
118 4
118 125
118 13
118 187
118 174
118 132
118 26
118 23
118 22
118 21
118 19
118 18
119 121
121 122
121 130
121 129
121 128
121 127
121 123
122 127
122 123
124 178
124 189
124 195
124 8
124 73
124 85
124 97
124 138
124 190
124 191
124 192
124 193
124 194
124 196
124 10
124 70
124 72
124 74
124 150
125 126
125 9
125 4
125 162
125 13
125 187
125 174
125 132
125 26
125 23
125 22
125 21
125 19
125 18
128 133
128 130
128 129
129 133
129 130
130 133
132 26
132 23
132 22
132 21
132 162
132 9
132 4
134 9
134 4
134 172
134 177
134 176
134 173
134 185
134 184
134 141
134 182
134 181
134 180
135 140
135 139
135 137
135 136
135 154
135 165
135 161
135 160
135 159
135 158
135 157
135 156
135 151
135 149
135 148
135 147
135 146
135 145
135 144
136 137
137 139
139 140
139 154
139 158
139 157
139 156
139 151
139 149
139 148
139 147
139 146
139 145
139 144
140 151
140 149
140 148
140 147
140 146
140 145
140 144
141 185
141 184
141 182
141 176
141 172
141 9
141 4
143 32
143 31
143 9
143 4
146 147
147 148
148 151
148 149
152 55
152 54
152 45
152 44
152 41
152 38
152 9
152 4
152 155
154 161
154 160
154 159
154 158
154 157
154 156
155 9
155 4
155 63
155 60
155 169
155 168
155 170
155 167
155 166
155 165
155 161
155 160
155 159
155 158
155 157
155 156
155 163
155 41
155 39
155 38
155 35
155 46
155 45
155 44
155 43
155 42
155 55
155 54
155 52
155 51
155 50
156 169
156 168
156 167
156 166
156 165
156 161
156 160
156 159
156 158
156 157
159 166
159 165
159 161
159 160
163 9
163 4
165 167
165 166
166 167
167 169
167 168
170 9
170 4
171 9
171 4
171 179
171 183
172 177
172 176
172 173
172 185
172 184
172 182
172 181
172 180
173 176
176 177
176 185
176 184
176 182
176 181
176 180
177 181
177 180
178 189
178 195
178 8
178 73
178 85
178 97
178 190
178 191
178 192
178 193
178 194
178 196
178 10
178 70
178 72
178 74
178 82
179 9
179 4
179 183
182 185
182 184
183 9
183 4
184 185
188 108
188 107
188 106
188 9
188 4
189 195
189 8
189 73
189 85
189 97
189 190
189 191
189 192
189 193
189 194
189 196
189 10
189 70
189 72
189 74
189 81
189 82
190 10
190 196
190 194
190 193
190 192
190 191
190 74
190 72
190 70
191 10
191 196
191 194
191 193
191 192
191 74
191 72
191 70
192 10
192 196
192 194
192 193
192 74
192 72
192 70
193 10
193 196
193 194
193 74
193 72
193 70
194 10
194 196
194 74
194 72
194 70
195 8
195 73
195 85
195 97
195 196
195 10
195 70
195 72
195 74
195 79
195 81
195 82
196 10
4 11
4 9
4 7
4 6
4 29
4 63
4 60
4 99
4 96
4 95
4 94
4 108
4 107
4 106
4 105
4 104
4 100
4 66
4 35
4 41
4 39
4 38
4 46
4 45
4 44
4 43
4 42
4 55
4 54
4 52
4 51
4 50
4 32
4 31
4 13
4 26
4 23
4 22
4 21
4 19
4 18
4 49
4 37
4 24
4 12
4 61
8 73
8 85
8 97
8 10
8 70
8 72
8 74
8 78
8 79
8 81
8 82
9 11
9 29
9 63
9 60
9 99
9 96
9 95
9 94
9 108
9 107
9 106
9 105
9 104
9 100
9 35
9 41
9 39
9 38
9 46
9 45
9 44
9 43
9 42
9 55
9 54
9 52
9 51
9 50
9 32
9 31
9 13
9 26
9 23
9 22
9 21
9 19
9 18
9 49
9 37
9 24
9 12
9 61
